10
Li2S8 optimized with GFN2-xTB/ALPB(ether), xtb 6.7.1, from [Li]SSSSSSSS[Li] embedded with RDKit ETKDGv3+UFF (seed 7). Tier-0 reference; NOT a verified global minimum.
Li           4.14048654608259        1.86164278324811       -0.90650944668411
S            1.97683397894143        1.82477673968263       -0.34738958138587
S            2.07956404143633       -0.12635476724519        0.29935812263285
S            1.49748312448596       -1.32039843500172       -1.26640681092373
S           -0.53249187023355       -0.99305711544794       -1.47613816809699
S           -1.51894723310383       -2.04924430071062       -0.03301147409540
S           -1.56754040237311       -0.78280874644455        1.64633707669777
S           -3.13879230485110        0.49969612148862        1.49916240805123
S           -2.57846872669221        2.16172489876313        0.51234117167009
Li          -0.35812615369289        1.55278582166755        0.07225670213488
